LAMMPS (27 Nov 2018)
  using 1 OpenMP thread(s) per MPI task
units real
boundary p p p

atom_style full
bond_style harmonic
angle_style harmonic
special_bonds lj/coul 0.0 0.0 0.5

pair_style lj/cut/coul/long 12.0 12.0
kspace_style pppm 1.0e-3

comm_modify vel yes
read_data data.swm4-ndp
  orthogonal box = (-12 -12 -12) to (12 12 12)
  1 by 1 by 1 MPI processor grid
  reading atoms ...
  2500 atoms
  scanning bonds ...
  1 = max bonds/atom
  scanning angles ...
  1 = max angles/atom
  reading bonds ...
  2000 bonds
  reading angles ...
  500 angles
  4 = max # of 1-2 neighbors
  3 = max # of 1-3 neighbors
  3 = max # of 1-4 neighbors
  4 = max # of special neighbors

pair_coeff    1    1      0.210939     3.183950  # ODw ODw
pair_coeff    *   2*      0.000000     0.0

group ATOMS type 1:3
2000 atoms in group ATOMS
group CORES type 1
500 atoms in group CORES
group DRUDES type 4
500 atoms in group DRUDES

variable TK equal 300.0
variable TDK equal 1.0
variable PBAR equal 1.0

neighbor 2.0 bin

timestep 1.0

fix DRUDE all drude C N N D

velocity ATOMS create ${TK} 12345
velocity ATOMS create 300 12345
velocity DRUDES create ${TDK} 12345
velocity DRUDES create 1 12345

delete_bonds ATOMS multi
PPPM initialization ...
  using 12-bit tables for long-range coulomb (src/kspace.cpp:321)
  G vector (1/distance) = 0.217457
  grid = 10 10 10
  stencil order = 5
  estimated absolute RMS force accuracy = 0.197288
  estimated relative force accuracy = 0.000594128
  using double precision FFTs
  3d grid and FFT values/proc = 3375 1000
Rebuild special list taking Drude particles into account
Old max number of 1-2 to 1-4 neighbors: 4
New max number of 1-2 to 1-4 neighbors: 4 (+0)
Neighbor list info ...
  update every 1 steps, delay 10 steps, check yes
  max neighbors/atom: 2000, page size: 100000
  master list distance cutoff = 14
  ghost atom cutoff = 14
  binsize = 7, bins = 4 4 4
  1 neighbor lists, perpetual/occasional/extra = 1 0 0
  (1) pair lj/cut/coul/long, perpetual
      attributes: half, newton on
      pair build: half/bin/newton
      stencil: half/bin/3d/newton
      bin: standard
  2000 total bonds, 500 turned on, 1500 turned off
  500 total angles, 0 turned on, 500 turned off
  0 total dihedrals, 0 turned on, 0 turned off
  0 total impropers, 0 turned on, 0 turned off

fix TEMP all langevin/drude ${TK} 100. 1256 ${TDK} 20. 13977 zero yes
fix TEMP all langevin/drude 300 100. 1256 ${TDK} 20. 13977 zero yes
fix TEMP all langevin/drude 300 100. 1256 1 20. 13977 zero yes
fix NPH ATOMS rigid/nph/small molecule iso ${PBAR} ${PBAR} 500.
fix NPH ATOMS rigid/nph/small molecule iso 1 ${PBAR} 500.
fix NPH ATOMS rigid/nph/small molecule iso 1 1 500.
500 rigid bodies with 2000 atoms
  0.832099 = max distance from body owner to body atom
fix NVE DRUDES nve

compute TEMP all temp/drude

thermo_style custom step cpu etotal ke pe ebond eangle evdwl ecoul elong press vol temp c_TEMP[1] c_TEMP[2]
thermo 20

run 2000
PPPM initialization ...
  using 12-bit tables for long-range coulomb (src/kspace.cpp:321)
  G vector (1/distance) = 0.217457
  grid = 10 10 10
  stencil order = 5
  estimated absolute RMS force accuracy = 0.197288
  estimated relative force accuracy = 0.000594128
  using double precision FFTs
  3d grid and FFT values/proc = 3375 1000
Per MPI rank memory allocation (min/avg/max) = 36.15 | 36.15 | 36.15 Mbytes
Step CPU TotEng KinEng PotEng E_bond E_angle E_vdwl E_coul E_long Press Volume Temp c_TEMP[1] c_TEMP[2] 
       0            0    4568.0415    903.41148      3664.63    623.46454            0    2890.2449    157955.66   -157804.74    244591.08        13824    202.18534    295.64644    14.858785 
      20    1.2941742    2882.4586    4527.8074   -1645.3488    561.72856            0    600.34616    155114.77   -157922.19    27167.701    14058.741    1013.3326    1438.6699    160.63128 
      40    2.6812835    1331.3822    3348.9313   -2017.5492    681.52311            0    553.09465    154668.62   -157920.79    17925.928    14484.215     749.4977    1105.2032    36.587791 
      60    4.0337768    297.35951    2604.4137   -2307.0542    583.99973            0    409.03992    154634.74   -157934.83    13017.752    15026.564    582.87312    864.55899    18.335647 
      80    5.3483341   -374.31059    2263.3247   -2637.6353    534.80336            0    212.27979    154543.18    -157927.9    6155.9233    15645.855    506.53672    755.45209    7.6929097 
     100    6.6217718   -905.58895    1911.7191    -2817.308    532.30402            0    87.570164    154497.48   -157934.66    2149.3102    16288.797    427.84665    639.27768    4.1289095 
     120    7.8588221   -1233.6892    1675.0884   -2908.7776    544.76423            0    59.500422    154422.72   -157935.76    233.49801    16915.818    374.88821    560.54178    2.8313109 
     140    8.9570706   -1463.4914    1468.7447   -2932.2361    539.69696            0    41.083518    154424.91   -157937.93   -1492.9875    17509.345    328.70809    491.66367    2.1395091 
     160    10.032995   -1695.7544    1385.9606   -3081.7149     552.9156            0    30.022825    154274.72   -157939.37   -3010.5044    18061.925    310.18082     463.9681    1.9858861 
     180    11.181687   -1818.1852    1253.1677   -3071.3529    559.57415            0    20.017285    154289.69   -157940.63   -3354.2207    18564.877     280.4615     419.5755    1.6725842 
     200    12.212811   -1949.6488    1210.0648   -3159.7136     570.0554            0    16.320167    154195.04   -157941.13    -4117.951    19014.456    270.81499    405.06855    1.7662371 
     220    13.224296   -2031.6068    1148.1459   -3179.7527    598.02848            0    30.832907    154127.13   -157935.75   -4514.6121    19406.767    256.95741    384.33718    1.6839577 
     240    14.315843   -2118.6272    1120.0031   -3238.6303    613.29235            0    59.889003     154030.6   -157942.41   -4415.1885     19738.97      250.659    374.93927    1.5971322 
     260    15.300218   -2203.4151    1065.8468   -3269.2619    614.19212            0    77.618884    153980.71   -157941.79   -4563.8872    20011.077    238.53871    356.80712    1.5248251 
     280    16.273073   -2317.9388    1033.2702   -3351.2091    650.51355            0    126.14935    153811.62   -157939.49   -4722.8063    20224.149      231.248    345.84878    1.5839508 
     300    17.240341   -2377.6039    992.48386   -3370.0878    688.02302            0     179.7828     153701.2    -157939.1   -4125.8573    20378.438    222.11992    332.08746    1.7406198 
     320     18.20275   -2419.6151    1023.0261   -3442.6412    720.31006            0     227.7006    153549.39   -157940.04    -4083.286     20479.24    228.95535    342.33558    1.7369708 
     340    19.161978   -2456.7614     1048.823   -3505.5844    754.12989            0    264.46876    153415.73   -157939.91   -3894.4573     20529.72    234.72874    351.04481    1.6271431 
     360      20.2149   -2504.7183    1041.9917     -3546.71    785.42914            0    335.38633     153271.5   -157939.03   -3464.0342    20531.324    233.19988    348.66948    1.7942822 
     380     21.17402   -2596.3611    1000.1227   -3596.4839     825.3161            0    390.15783    153129.43   -157941.39   -3357.8641    20490.649    223.82952    334.61582    1.8092697 
     400    22.139238   -2666.6886    1006.4834    -3673.172    866.01231            0    422.49717    152978.53   -157940.22   -3329.7321    20411.001    225.25305    336.79329    1.7220591 
     420    23.107117   -2676.0182    1036.9614   -3712.9796    909.17035            0    490.73558       152826   -157938.88   -2909.4385    20294.307    232.07409    346.93054    1.8970578 
     440    24.079176   -2731.6451    1054.3541   -3785.9992    935.99044            0    530.99271    152684.71   -157937.69   -2566.5271    20147.069    235.96661    352.81301    1.8018782 
     460    25.058476   -2808.7306    996.20963   -3804.9403    986.66566            0     582.2501    152565.84    -157939.7   -2490.6211    19973.642    222.95376    333.32458    1.7662208 
     480    26.045001   -2862.5602    1012.8284   -3875.3886    1005.2147            0     610.1273    152450.46   -157941.19   -2032.2463    19777.578    226.67307    338.84478     1.876307 
     500    27.043275   -2935.1165    989.42859   -3924.5451    1019.8833            0    633.91479    152362.53   -157940.87   -2210.2423    19561.788    221.43615     331.0551    1.7553824 
     520    28.052607   -2989.5984    969.48801   -3959.0864     1057.825            0    655.88112    152268.64   -157941.44    -2303.725    19328.454    216.97341    324.39473    1.6968168 
     540    29.169729   -3036.3745    1016.2059   -4052.5804    1091.3747            0    658.52433    152140.18   -157942.65   -2235.4034     19080.73    227.42896    340.04854    1.7349328 
     560    30.202366   -3093.8922    946.57093   -4040.4631    1140.9835            0    764.01213    151997.25   -157942.71   -1159.9486    18819.788    211.84452    316.62558      1.85871 
     580    31.245469   -3165.5156    988.32907   -4153.8446    1198.6661            0    795.79314    151795.81   -157944.12   -1299.7687    18555.467    221.19007    330.67963    1.7685771 
     600    32.305233   -3193.4945    981.48315   -4174.9776    1207.1636            0    842.25251    151717.63   -157942.02   -845.49527    18290.083    219.65794    328.37122    1.7920774 
     620    33.378728   -3254.0556    966.92094   -4220.9766    1219.0239            0    848.81235    151653.93   -157942.75   -633.10425     18027.72    216.39889     323.4395    1.8848743 
     640    34.465769   -3267.9659    1003.5996   -4271.5655     1273.644            0    929.19275    151468.58   -157942.99    146.55456    17770.457    224.60765    335.70351    1.9667214 
     660    35.565967   -3292.3649    1001.1012   -4293.4661    1299.7838            0    957.48532    151393.06   -157943.79    252.79622    17523.772     224.0485    334.86273    1.9719336 
     680    36.678817   -3311.7859    1008.4763   -4320.2622    1356.4829            0    987.54908    151279.12   -157943.41    715.95691     17290.15    225.69907    337.35795    1.9299071 
     700    37.804361   -3384.7539    970.95734   -4355.7113    1376.9176            0     1003.218    151209.28   -157945.12    602.03837    17070.444    217.30224    324.76399    1.9441468 
     720    38.944631    -3389.983    1003.4282   -4393.4112    1388.0708            0     1009.042    151153.78   -157944.31    799.15462    16864.409     224.5693    335.74485    1.7690575 
     740    40.095444   -3390.8892    1011.8969    -4402.786    1395.7801            0    1060.0508    151084.65   -157943.27    1475.2637    16672.377     226.4646    338.45322     2.034426 
     760    41.257411   -3430.7027    1037.7609   -4468.4636    1415.8714            0    1069.0374    150989.87   -157943.24    1304.5866    16496.661    232.25301    347.18143    1.9316673 
     780    42.432308    -3457.167    1031.0329   -4488.1999    1428.7433            0    1114.4772    150912.91   -157944.33    1885.5157    16338.236    230.74728    344.90463    1.9710957 
     800    43.614638   -3510.8663     985.5619   -4496.4282     1454.853            0    1136.1159    150858.74   -157946.14    1646.2494    16199.542    220.57078    329.56096    2.1492639 
     820    44.806214   -3561.3122     954.7588    -4516.071    1480.1009            0    1122.7071    150826.81   -157945.69    1635.0446     16080.49    213.67698    319.29136    2.0208705 
     840    46.008772   -3574.3488    957.87693   -4532.2258    1470.2766            0    1075.5497    150865.51   -157943.56    1501.6257    15978.031    214.37482    320.32468    2.0463654 
     860    47.215247    -3579.685    964.25763   -4543.9426    1434.0326            0    1038.1021    150929.67   -157945.75    1011.7367     15888.91    215.80284    322.50392    1.9690629 
     880    48.426587   -3621.2356    959.70408   -4580.9397    1439.8947            0    1036.0768    150886.22   -157943.13    506.78826    15810.176    214.78374     320.9264    2.0688639 
     900    49.644699   -3666.1303     946.8746   -4613.0049    1466.4484            0    1064.2478    150801.81   -157945.51    1109.1589    15739.244    211.91248    316.66479    1.9840376 
     920    50.870043   -3689.2489    931.40538   -4620.6543    1504.5475            0    1112.6525    150708.42   -157946.28    1403.0057    15677.776    208.45044     311.4521    2.0302083 
     940     52.10243   -3721.3501    909.43101   -4630.7811    1542.2534            0     1138.863    150634.25   -157946.14    1347.0651    15627.828    203.53253    304.13886    1.9127999 
     960    53.227722   -3765.0247    879.73583   -4644.7606    1542.4842            0    1151.7551    150607.39   -157946.39    1704.8479     15589.06    196.88668    294.16244    1.9413966 
     980    54.463265    -3768.795    907.84469   -4676.6397    1541.4855            0     1133.986    150593.62   -157945.73    1307.1066    15561.731     203.1775    303.56604    1.9940794 
    1000    55.701727   -3785.8075    880.81809   -4666.6256    1521.7209            0    1096.2695    150662.35   -157946.97    970.21043    15543.592     197.1289    294.56486    1.8627129 
    1020    56.889708   -3802.4725    921.96298   -4724.4355    1530.0248            0    1066.8927    150623.76   -157945.11    4.0693062    15531.676    206.33721    308.27171    2.0555342 
    1040    58.073551   -3805.5983    892.97259   -4698.5709    1517.1505            0     1090.904    150638.66   -157945.28    814.78747    15522.075     199.8491    298.65131    1.8449766 
    1060    59.268992   -3814.9754    904.37152   -4719.3469    1516.0462            0    1073.1076    150635.42   -157943.93    352.09813     15517.26     202.4002    302.40986    1.9760806 
    1080    60.368197   -3799.7772    900.93602   -4700.7132    1525.3102            0    1076.0639    150645.06   -157947.15    399.96911    15516.854    201.63133    301.25571    1.9793146 
    1100     61.57456   -3802.9637    891.80847   -4694.7721    1493.3846            0     1048.571    150708.35   -157945.08    296.41566    15520.259    199.58857    298.21614    1.9342423 
    1120    62.780309   -3783.7153    915.24553   -4698.9609    1504.5486            0    1057.5171    150684.14   -157945.17    489.89871    15526.377    204.83383    306.05465    1.9825112 
    1140    63.986179   -3799.4039    915.28328   -4714.6872     1498.182            0    1037.3595    150696.49   -157946.72   -57.392244    15535.825    204.84228    306.06136    1.9944283 
    1160    65.193113   -3821.1813    889.41687   -4710.5981    1485.5696            0     1035.222    150714.63   -157946.02   -132.88199    15546.599    199.05332    297.34747    2.0669157 
    1180    66.295017   -3815.3668    883.81796   -4699.1847    1475.1971            0    1029.0735    150742.62   -157946.07   -12.015088    15557.826    197.80027    295.60821    1.7888039 
    1200    67.501339   -3799.2243    924.83203   -4724.0563    1503.6728            0    1039.8081    150676.17   -157943.71   -279.42673    15568.706    206.97931    309.25452    2.0149166 
    1220     68.70749   -3793.2571    918.16669   -4711.4238    1500.7028            0    1072.1543    150660.33   -157944.61    396.95956    15579.039    205.48759    307.10011    1.8515828 
    1240    69.913097   -3807.1761    903.62796    -4710.804    1518.0566            0     1098.727    150617.61   -157945.19    571.77344     15592.05    202.23379    302.09539    2.1061249 
    1260    71.120192   -3813.0785    928.88909   -4741.9676    1522.8082            0    1080.2068    150602.14   -157947.12    143.45803    15608.285    207.88729    310.67334    1.8994019 
    1280    72.221799   -3825.0477    896.43989   -4721.4876    1498.3409            0    1057.1098    150667.73   -157944.67   -469.23041    15626.738    200.62509    299.78768    1.8986521 
    1300    73.424948   -3846.2307    907.67631    -4753.907    1477.8354            0    1013.4733    150700.69    -157945.9   -661.19665    15644.394    203.13982    303.56549    1.8822105 
    1320    74.627469    -3829.941    882.93628   -4712.8773    1476.7417            0    1016.2042    150741.02   -157946.85   -14.196904    15658.043    197.60295    295.24326    1.9271172 
    1340    75.833837   -3851.5034    857.32804   -4708.8314    1465.5881            0    1021.2072    150749.47    -157945.1   -96.242387    15669.364    191.87178     286.7037    1.8241831 
    1360    76.936204   -3860.3024    888.18647   -4748.4888    1464.1796            0    984.93111     150747.8    -157945.4   -974.33424    15678.357    198.77795     297.0089    1.9185093 
    1380    78.140865   -3836.5819    880.98802   -4717.5699    1461.9764            0    985.01748    150781.29   -157945.85    -872.9259    15682.263    197.16693    294.58145    1.9435476 
    1400    79.344863   -3828.5386    906.27947   -4734.8181    1482.8705            0    991.46422    150736.59   -157945.74   -1233.9461    15680.599    202.82721     303.0834     1.909166 
    1420    80.548134   -3814.3258    902.48807   -4716.8139    1475.6502            0    1014.0056    150738.18   -157944.65   -555.01708    15672.591    201.97868    301.83062    1.8708541 
    1440    81.755274   -3856.0851    862.48793    -4718.573    1498.2382            0    1065.2356     150663.3   -157945.35     32.56482    15661.106    193.02657    288.38598    1.9216938 
    1460    82.860741   -3844.5162    901.31045   -4745.8266    1509.4529            0    1079.4605    150610.73   -157945.47    187.59843    15650.274    201.71513    301.41292    1.9161214 
    1480    84.068614   -3830.9341     924.4504   -4755.3845    1492.3743            0    1043.7244    150654.84   -157946.33   -493.49005    15640.167     206.8939    309.17217    1.9235617 
    1500    85.277247   -3837.3277    905.31407   -4742.6418    1493.7224            0    1030.5512    150679.62   -157946.53   -614.09435    15628.452    202.61115    302.74791    1.9324006 
    1520     86.48688   -3826.0085    909.05297   -4735.0615    1484.1418            0    1034.4558    150691.85   -157945.51   -146.17552    15614.976    203.44792    304.03751    1.8618391 
    1540    87.592599   -3841.6696    938.60068   -4780.2703     1507.974            0    1041.0705    150616.87   -157946.18   -507.85898    15599.499    210.06076    313.85613    2.0498944 
    1560    88.805017   -3826.9957    909.65333    -4736.649    1544.8227            0     1126.866     150538.2   -157946.54    606.26354    15581.816    203.58228    304.19548    1.9487298 
    1580    90.020651   -3832.1768    912.93266   -4745.1095    1574.5895            0    1176.6062    150449.01   -157945.31    1282.9622    15569.746     204.3162    305.24469    2.0505914 
    1600    91.237675   -3854.9438    913.45738   -4768.4012    1573.5937            0    1137.9072    150465.94   -157945.85     833.4472    15566.901    204.43364    305.43089    2.0302658 
    1620    92.456385   -3858.2579    926.48289   -4784.7408    1547.7966            0    1104.6836    150506.72   -157943.94    175.66142    15569.538    207.34877    309.84283    1.9459647 
    1640     93.67173   -3891.1815    918.17278   -4809.3543     1552.442            0    1100.5019     150484.4    -157946.7   -21.914006    15574.644    205.48895     307.0691    1.9176872 
    1660    94.887992   -3919.3626    865.63387   -4784.9964    1520.4861            0    1071.2498    150569.18   -157945.91    76.169452    15580.674    193.73064    289.45503    1.8943961 
    1680    96.104407   -3895.1048    904.57852   -4799.6834    1528.5992            0     1025.321    150591.92   -157945.52   -806.96969     15586.13    202.44653    302.49383    1.9470391 
    1700    97.217725    -3867.858    892.51088   -4760.3689    1529.7738            0    1070.8486    150584.86   -157945.86    140.65618    15587.548    199.74577    298.38679    2.0642365 
    1720    98.434344   -3893.3744    901.29331   -4794.6677    1574.0498            0    1116.4639    150460.62    -157945.8    58.347282    15588.502    201.71129    301.37785     1.974756 
    1740    99.650283   -3863.7002    920.58199   -4784.2822    1591.6512            0    1158.7562    150411.66   -157946.35    690.62331    15590.533    206.02814    307.90557    1.8612258 
    1760    100.86726   -3861.1571    936.31333   -4797.4705    1577.1868            0     1147.145    150425.93   -157947.74    479.33327    15596.819    209.54885    313.12745    1.9725316 
    1780    102.08407   -3902.9055     937.9542   -4840.8597    1574.1479            0    1089.8436    150439.21   -157944.06   -423.26154    15606.503    209.91608    313.72161    1.8851726 
    1800    103.30044   -3924.3367    882.83761   -4807.1743    1548.9296            0    1083.4742    150506.67   -157946.25   -165.30212    15613.782    197.58087    295.18333    1.9807824 
    1820    104.51493    -3933.257    906.13467   -4839.3917    1566.2208            0    1066.4802     150474.1   -157946.19   -704.84936    15618.451     202.7948      303.015     1.948802 
    1840    105.73189   -3925.7774    886.11608   -4811.8935    1541.3194            0    1071.3574    150522.01   -157946.58   -603.17056    15617.998     198.3146    296.30423    1.9386975 
    1860    106.94721    -3888.206    921.52432   -4809.7304    1579.4857            0    1109.6812    150447.64   -157946.54     104.6013    15613.197    206.23903     308.2177    1.8692298 
    1880    108.06014   -3916.0862    918.21234   -4834.2985    1583.1417            0    1094.2365    150433.88   -157945.56   -253.01422     15607.47    205.49781    306.96538    2.1516579 
    1900    109.27602   -3899.0882    918.64022   -4817.7285    1556.1431            0    1115.1484    150457.92   -157946.94   -143.94816    15600.312    205.59357    307.17307    2.0233622 
    1920    110.49415   -3920.9798     896.1905   -4817.1703    1548.5569            0    1085.0712    150496.68   -157947.48   -337.28194    15592.107    200.56927    299.64783    2.0110119 
    1940    111.71421   -3968.3536    874.10309   -4842.4567    1572.4606            0    1094.9587    150436.32   -157946.19   -303.02321    15581.696    195.62607    292.28508    1.9167899 
    1960    112.93472   -3934.8475     883.5952   -4818.4427    1591.4146            0    1141.0692     150394.9   -157945.83     393.7304    15568.475    197.75042    295.48636     1.883029 
    1980    114.15483   -3907.4423    937.55746   -4844.9997     1643.691            0    1216.6376    150240.27   -157945.59    815.94743    15556.713    209.82728    313.50122    2.0597469 
    2000    115.37626   -3925.4165    915.08958    -4840.506    1623.4406            0    1190.2236    150292.14   -157946.31    519.99833    15550.966    204.79893    305.95187     2.083444 
Loop time of 115.376 on 1 procs for 2000 steps with 2500 atoms

Performance: 1.498 ns/day, 16.024 hours/ns, 17.335 timesteps/s
99.0% CPU use with 1 MPI tasks x 1 OpenMP threads

MPI task timing breakdown:
Section |  min time  |  avg time  |  max time  |%varavg| %total
---------------------------------------------------------------
Pair    | 97.091     | 97.091     | 97.091     |   0.0 | 84.15
Bond    | 0.031897   | 0.031897   | 0.031897   |   0.0 |  0.03
Kspace  | 3.7648     | 3.7648     | 3.7648     |   0.0 |  3.26
Neigh   | 10.041     | 10.041     | 10.041     |   0.0 |  8.70
Comm    | 0.79701    | 0.79701    | 0.79701    |   0.0 |  0.69
Output  | 0.0071344  | 0.0071344  | 0.0071344  |   0.0 |  0.01
Modify  | 3.5966     | 3.5966     | 3.5966     |   0.0 |  3.12
Other   |            | 0.0467     |            |       |  0.04

Nlocal:    2500 ave 2500 max 2500 min
Histogram: 1 0 0 0 0 0 0 0 0 0
Nghost:    21222 ave 21222 max 21222 min
Histogram: 1 0 0 0 0 0 0 0 0 0
Neighs:    2.30826e+06 ave 2.30826e+06 max 2.30826e+06 min
Histogram: 1 0 0 0 0 0 0 0 0 0

Total # of neighbors = 2308257
Ave neighs/atom = 923.303
Ave special neighs/atom = 4
Neighbor list builds = 100
Dangerous builds = 6

Total wall time: 0:01:55
